chromatic-graph-theory-main/chromatic-graph-theory-main/input/graph-.txt
16
0 : 100 : 4, 9, 8, 3, 1, 5, 2, 11, 15, 6, 12, 
1 : 57 : 4, 7, 10, 3, 5, 11, 14, 0, 15, 6, 13, 12, 
2 : 2 : 4, 9, 7, 10, 14, 15, 6, 12, 13, 8, 3, 11, 0, 
3 : 20 : 8, 10, 1, 2, 11, 14, 0, 15, 6, 13, 12, 
4 : 63 : 8, 7, 10, 1, 5, 2, 14, 0, 6, 
5 : 4 : 4, 9, 8, 10, 1, 14, 11, 0, 15, 6, 12, 13, 
6 : 42 : 4, 9, 7, 10, 1, 14, 15, 13, 12, 8, 3, 5, 2, 11, 0, 
7 : 17 : 4, 9, 8, 10, 1, 2, 11, 14, 15, 6, 
8 : 81 : 4, 7, 3, 5, 2, 11, 0, 15, 6, 13, 
9 : 27 : 7, 10, 5, 2, 11, 0, 15, 6, 13, 
10 : 8 : 4, 9, 7, 1, 14, 15, 6, 12, 13, 3, 5, 2, 11, 
11 : 62 : 9, 7, 8, 10, 3, 1, 5, 2, 0, 15, 6, 12, 
12 : 45 : 10, 3, 5, 1, 11, 2, 0, 6, 13, 
13 : 34 : 9, 8, 10, 3, 1, 5, 2, 14, 6, 12, 
14 : 93 : 4, 7, 10, 3, 1, 5, 2, 15, 6, 13, 
15 : 68 : 9, 7, 8, 10, 3, 1, 5, 14, 2, 11, 0, 6, 
