chromatic-graph-theory-main/chromatic-graph-theory-main/input/graph-.txt.txt
10
0 : 84 : 2, 6, 7, 8, 9, 3, 1, 4, 
1 : 34 : 2, 6, 8, 3, 0, 4, 5, 
2 : 93 : 8, 0, 1, 4, 
3 : 63 : 6, 7, 8, 0, 1, 
4 : 63 : 2, 6, 8, 9, 0, 1, 5, 
5 : 61 : 6, 8, 9, 1, 4, 
6 : 52 : 7, 8, 3, 0, 1, 4, 5, 
7 : 95 : 6, 3, 0, 
8 : 92 : 2, 6, 9, 3, 0, 1, 4, 5, 
9 : 64 : 8, 0, 4, 5, 
